unsat
(:added-eqs                   3321440
 :arith-eq-adapter            3950
 :arith-bound-propagations-lp 229428
 :arith-conflicts             537
 :arith-diseq                 253998
 :arith-fixed-eqs             345067
 :arith-lower                 165660
 :arith-make-feasible         101695
 :arith-max-columns           1437
 :arith-max-rows              836
 :arith-offset-eqs            120261
 :arith-upper                 372828
 :binary-propagations         14408048
 :conflicts                   29610
 :decisions                   1928914
 :del-clause                  25287
 :elim-unconstrained          2
 :max-memory                  59.54
 :memory                      37.56
 :minimized-lits              276947
 :mk-bool-var                 23826
 :mk-clause                   41093
 :mk-clause-binary            65141
 :num-allocs                  1488081874
 :num-checks                  1
 :propagations                19208269
 :restarts                    164
 :rlimit-count                57955090
 :time                        54.67
 :total-time                  54.96)
